c E(0,1) E(1,0) E(0,2) E(2,0) E(1,2) E(2,1) E(0,3) E(3,0) E(1,3) E(3,1) E(2,3) E(3,2) E(0,4) E(4,0) E(1,4) E(4,1) E(2,4) E(4,2) E(3,4) E(4,3) E(0,5) E(5,0) E(1,5) E(5,1) E(2,5) E(5,2) E(3,5) E(5,3) E(4,5) E(5,4)
c 1      2      3      4      5      6      7      8      9      10     11     12     13     14     15     16     17     18     19     20     21     22     23     24     25     26     27     28     29     30
p cnf 30 36
1 3 7 13 21 0
2 5 9 15 23 0
4 6 11 17 25 0
8 10 12 19 27 0
14 16 18 20 29 0
22 24 26 28 30 0
-1 2 0
1 -2 0
-3 4 0
3 -4 0
-5 6 0
5 -6 0
-7 8 0
7 -8 0
-9 10 0
9 -10 0
-11 12 0
11 -12 0
-13 14 0
13 -14 0
-15 16 0
15 -16 0
-17 18 0
17 -18 0
-19 20 0
19 -20 0
-21 22 0
21 -22 0
-23 24 0
23 -24 0
-25 26 0
25 -26 0
-27 28 0
27 -28 0
-29 30 0
29 -30 0